jobs  (incl. supersource/sink ):	52
RESOURCES
- renewable                 : 4 R
- nonrenewable              : 4 N
- doubly constrained        : 0 D
************************************************************************
PRECEDENCE RELATIONS:
jobnr.    #modes  #successors   successors
1	1	6		2 3 4 5 8 9 
2	9	4		12 10 7 6 
3	9	3		16 10 6 
4	9	4		16 15 12 6 
5	9	2		16 7 
6	9	4		24 19 14 11 
7	9	7		26 24 21 17 15 14 13 
8	9	5		17 15 14 13 12 
9	9	5		21 17 16 15 13 
10	9	5		26 24 21 17 15 
11	9	4		26 18 17 13 
12	9	4		32 26 25 20 
13	9	3		25 22 20 
14	9	4		32 27 25 23 
15	9	3		32 23 22 
16	9	3		30 26 20 
17	9	2		32 20 
18	9	5		32 30 29 28 27 
19	9	3		29 27 25 
20	9	2		27 23 
21	9	2		30 23 
22	9	3		30 29 27 
23	9	3		34 29 28 
24	9	4		37 34 33 29 
25	9	3		39 30 28 
26	9	3		39 34 28 
27	9	5		40 39 37 34 33 
28	9	4		43 40 37 33 
29	9	3		40 35 31 
30	9	3		43 37 33 
31	9	6		51 44 43 42 39 38 
32	9	6		51 43 42 41 39 36 
33	9	4		42 38 36 35 
34	9	3		43 38 35 
35	9	4		51 50 49 44 
36	9	4		50 49 45 44 
37	9	4		51 50 49 44 
38	9	2		45 41 
39	9	5		50 49 48 47 45 
40	9	3		49 45 44 
41	9	5		50 49 48 47 46 
42	9	5		50 49 48 47 46 
43	9	4		49 48 47 46 
44	9	3		48 47 46 
45	9	1		46 
46	9	1		52 
47	9	1		52 
48	9	1		52 
49	9	1		52 
50	9	1		52 
51	9	1		52 
52	1	0		
************************************************************************
REQUESTS/DURATIONS
jobnr.	mode	dur	R1	R2	R3	R4	N1	N2	N3	N4	
------------------------------------------------------------------------
1	1	0	0	0	0	0	0	0	0	0	
2	1	3	21	17	8	9	24	13	14	25	
	2	8	20	17	8	8	19	13	12	25	
	3	11	18	17	8	8	17	12	11	22	
	4	15	17	17	7	6	15	11	10	20	
	5	19	17	17	7	5	15	10	10	18	
	6	27	15	16	6	5	12	9	8	15	
	7	28	15	16	5	4	9	8	8	15	
	8	29	13	16	5	3	7	7	6	13	
	9	30	12	16	5	1	6	5	5	11	
3	1	1	22	26	20	19	26	14	13	22	
	2	2	21	25	19	17	24	13	11	21	
	3	9	20	24	17	14	24	13	10	19	
	4	12	20	21	17	13	22	13	10	18	
	5	15	18	19	16	10	21	13	8	17	
	6	21	16	18	14	8	20	13	5	14	
	7	22	15	17	14	8	20	13	5	14	
	8	23	15	15	12	5	19	13	2	12	
	9	30	14	15	12	3	17	13	1	11	
4	1	3	29	14	21	18	12	21	20	15	
	2	5	29	13	21	17	11	21	19	14	
	3	6	29	13	21	17	10	19	18	12	
	4	12	29	13	21	16	8	18	17	12	
	5	15	29	12	20	15	8	18	16	10	
	6	19	29	12	20	15	6	16	15	10	
	7	20	29	12	19	14	6	16	14	9	
	8	21	29	11	19	14	4	14	13	8	
	9	23	29	11	19	14	4	14	13	7	
5	1	8	27	24	3	28	28	6	26	18	
	2	10	24	23	3	27	27	5	25	16	
	3	16	23	20	3	26	24	5	24	16	
	4	21	22	19	2	24	22	5	21	13	
	5	22	20	16	2	23	21	5	21	12	
	6	23	18	15	2	21	20	5	19	10	
	7	24	17	13	2	20	16	5	19	8	
	8	25	15	12	1	18	14	5	17	7	
	9	30	15	10	1	16	12	5	16	7	
6	1	2	24	12	22	17	23	19	13	28	
	2	5	22	11	22	16	22	18	13	26	
	3	6	22	11	22	16	22	17	13	26	
	4	7	22	11	21	16	22	15	13	25	
	5	10	21	11	21	15	21	15	13	24	
	6	24	21	11	21	15	20	14	13	23	
	7	25	20	11	20	15	20	13	13	22	
	8	26	19	11	20	14	19	11	13	20	
	9	27	19	11	20	14	18	10	13	20	
7	1	2	14	9	27	22	28	11	13	22	
	2	7	14	8	27	22	25	9	13	18	
	3	8	14	7	22	19	25	9	12	17	
	4	10	14	6	22	18	24	8	11	14	
	5	12	13	6	20	16	21	6	10	13	
	6	15	13	5	15	15	21	6	9	10	
	7	20	13	4	13	13	20	4	7	10	
	8	21	13	3	12	10	17	3	7	7	
	9	25	13	2	10	10	17	3	6	6	
8	1	3	22	30	12	20	21	17	14	19	
	2	6	20	29	11	18	21	14	13	19	
	3	9	17	28	11	18	19	12	13	19	
	4	10	15	28	10	17	19	12	12	19	
	5	11	13	27	8	16	17	11	12	19	
	6	13	13	27	7	16	16	9	12	18	
	7	14	11	26	7	16	15	7	11	18	
	8	17	9	26	6	14	13	5	11	18	
	9	20	5	26	5	14	13	5	11	18	
9	1	3	26	11	24	27	28	10	14	26	
	2	7	25	11	23	27	25	9	12	24	
	3	12	25	11	21	27	25	8	12	23	
	4	13	25	11	21	27	22	7	10	21	
	5	14	25	10	20	27	21	7	10	21	
	6	15	25	10	18	27	19	6	9	19	
	7	19	25	10	18	27	17	5	9	17	
	8	24	25	9	17	27	17	3	7	17	
	9	25	25	9	15	27	16	3	7	14	
10	1	1	28	15	20	12	27	25	22	19	
	2	4	23	15	17	11	25	23	20	19	
	3	5	22	14	17	11	22	21	18	19	
	4	9	20	14	15	9	19	19	16	19	
	5	12	15	13	13	7	15	17	15	18	
	6	13	12	13	13	6	12	15	13	18	
	7	17	9	13	10	6	11	14	12	17	
	8	21	6	12	9	5	8	11	9	17	
	9	28	3	12	8	3	4	10	7	17	
11	1	4	28	25	24	27	23	19	11	23	
	2	7	26	23	23	25	23	19	11	20	
	3	11	26	19	22	23	23	18	9	17	
	4	12	25	18	21	22	22	16	8	15	
	5	14	23	16	20	19	22	16	8	13	
	6	20	23	12	19	18	22	14	6	12	
	7	25	22	12	18	18	22	13	6	10	
	8	29	20	9	17	16	21	11	4	7	
	9	30	20	5	17	15	21	10	3	6	
12	1	7	24	27	13	12	29	6	22	5	
	2	18	23	22	12	10	26	6	20	5	
	3	22	23	19	10	10	24	5	19	5	
	4	23	23	19	10	9	24	5	18	5	
	5	24	22	16	8	9	22	4	17	5	
	6	25	22	13	6	8	21	4	16	5	
	7	26	22	12	5	7	19	3	15	5	
	8	27	22	9	4	7	17	2	13	5	
	9	29	22	5	3	6	16	2	13	5	
13	1	6	18	22	26	27	27	30	27	8	
	2	7	18	21	26	25	25	29	26	8	
	3	11	18	21	26	23	23	28	25	6	
	4	12	18	21	26	21	21	28	23	6	
	5	13	17	19	26	15	18	26	19	4	
	6	19	17	19	26	14	16	26	19	3	
	7	20	17	19	26	9	14	26	16	3	
	8	24	16	18	26	6	12	25	14	1	
	9	25	16	17	26	5	9	24	13	1	
14	1	2	14	17	24	26	27	23	10	13	
	2	7	14	16	23	24	27	22	9	12	
	3	8	14	16	20	22	25	22	9	12	
	4	10	13	16	20	21	23	21	8	12	
	5	11	12	16	18	20	22	21	8	12	
	6	14	12	16	17	16	20	20	7	12	
	7	20	12	16	14	15	20	20	7	12	
	8	23	11	16	14	14	18	19	7	12	
	9	30	11	16	13	11	17	18	6	12	
15	1	7	15	9	21	23	21	17	17	23	
	2	9	14	7	21	22	20	17	17	22	
	3	11	13	6	21	20	18	16	17	21	
	4	15	13	6	20	18	17	16	17	20	
	5	23	13	4	20	17	17	15	16	17	
	6	24	12	3	20	16	17	14	16	17	
	7	25	11	2	20	15	16	14	16	15	
	8	26	11	1	19	14	14	14	15	14	
	9	29	11	1	19	12	14	13	15	11	
16	1	5	18	23	26	23	30	17	23	22	
	2	6	16	23	22	20	28	16	22	22	
	3	7	15	23	21	19	25	15	20	21	
	4	12	14	23	18	17	24	14	18	20	
	5	13	11	23	18	15	23	14	14	18	
	6	16	10	23	16	11	21	13	12	17	
	7	21	8	23	15	10	20	13	12	17	
	8	27	5	23	11	6	18	12	8	16	
	9	28	4	23	10	6	17	12	7	15	
17	1	4	6	22	9	11	23	10	24	9	
	2	6	6	21	8	9	22	10	23	8	
	3	7	5	20	8	8	20	8	21	8	
	4	10	4	19	7	7	17	8	19	7	
	5	13	4	18	6	5	16	6	17	6	
	6	17	3	17	5	5	16	6	15	6	
	7	18	2	16	3	3	13	4	11	6	
	8	27	2	16	2	3	12	4	9	5	
	9	30	1	15	2	1	10	3	9	5	
18	1	1	3	23	6	30	12	20	21	27	
	2	8	3	20	5	29	11	18	20	25	
	3	11	3	19	4	27	11	17	17	23	
	4	13	2	18	4	27	11	14	14	19	
	5	15	2	15	3	26	10	13	14	17	
	6	16	2	15	2	25	10	12	11	14	
	7	17	1	13	2	24	9	10	11	11	
	8	18	1	11	1	24	8	9	8	7	
	9	25	1	9	1	23	8	8	7	5	
19	1	2	24	27	3	29	16	27	23	10	
	2	3	23	27	3	28	15	25	19	9	
	3	4	23	26	3	25	15	20	18	9	
	4	7	23	25	3	24	14	17	17	8	
	5	11	22	24	3	22	14	14	14	5	
	6	14	22	23	2	20	14	14	14	4	
	7	20	22	22	2	20	13	11	12	4	
	8	28	22	21	2	17	13	8	10	3	
	9	30	22	21	2	16	13	4	9	2	
20	1	1	20	12	27	17	20	27	16	23	
	2	7	17	11	26	15	18	26	15	22	
	3	8	17	10	26	15	14	26	15	19	
	4	10	13	9	26	12	14	25	13	18	
	5	13	11	8	26	11	10	25	12	15	
	6	15	10	8	26	10	8	24	12	13	
	7	17	8	7	26	8	5	24	10	13	
	8	20	6	5	26	6	3	23	10	9	
	9	25	3	5	26	5	2	23	8	8	
21	1	3	21	20	14	7	28	27	8	23	
	2	10	17	20	13	6	28	24	7	22	
	3	16	15	20	13	6	26	24	7	20	
	4	20	14	20	13	6	26	23	7	20	
	5	21	12	20	13	6	25	20	7	19	
	6	22	9	20	13	6	24	19	7	18	
	7	23	9	20	13	6	22	18	7	18	
	8	27	5	20	13	6	21	15	7	16	
	9	30	3	20	13	6	20	15	7	16	
22	1	1	5	27	17	30	13	9	6	14	
	2	2	5	25	16	25	13	8	6	13	
	3	3	5	24	15	25	11	8	5	13	
	4	4	4	22	12	22	10	8	5	10	
	5	20	3	21	10	19	10	7	4	10	
	6	22	3	20	10	18	8	7	3	8	
	7	23	2	20	9	14	7	7	3	6	
	8	28	2	19	5	13	6	6	1	6	
	9	29	2	18	4	9	6	6	1	5	
23	1	3	18	24	27	16	11	22	14	28	
	2	19	16	22	27	13	11	19	12	25	
	3	22	14	22	24	12	9	16	11	21	
	4	23	11	21	24	10	9	16	11	19	
	5	25	9	21	21	10	7	13	10	17	
	6	26	9	20	19	9	7	11	10	13	
	7	27	7	20	17	8	5	11	8	8	
	8	29	5	20	15	5	4	7	7	5	
	9	30	4	19	15	4	4	6	7	4	
24	1	2	20	20	28	26	29	21	12	20	
	2	10	20	18	27	24	28	19	12	20	
	3	11	19	18	23	22	27	17	10	16	
	4	12	17	18	23	22	27	17	9	15	
	5	16	17	17	19	21	25	16	9	14	
	6	21	14	16	18	19	25	15	9	11	
	7	24	14	15	17	18	25	14	7	10	
	8	29	13	15	13	18	23	13	7	8	
	9	30	11	14	12	17	23	11	6	4	
25	1	1	27	27	15	23	3	11	16	20	
	2	6	24	27	14	23	3	11	15	19	
	3	7	19	27	14	22	3	11	14	16	
	4	8	19	27	14	20	3	11	14	14	
	5	9	13	27	13	20	3	11	13	13	
	6	14	11	27	13	18	3	11	12	9	
	7	16	7	27	13	17	3	11	12	7	
	8	21	6	27	12	17	3	11	12	5	
	9	23	2	27	12	16	3	11	11	4	
26	1	2	18	20	28	28	24	19	20	30	
	2	6	18	19	27	27	24	17	19	27	
	3	10	17	17	27	26	22	15	18	23	
	4	13	16	16	26	26	21	14	18	21	
	5	15	16	16	25	25	21	13	17	18	
	6	18	15	13	24	25	19	11	16	16	
	7	24	15	12	22	24	19	10	15	10	
	8	25	13	11	21	24	18	8	14	9	
	9	29	13	10	21	24	16	6	14	6	
27	1	6	16	11	21	29	13	5	19	6	
	2	7	15	11	20	28	12	4	19	6	
	3	12	14	11	19	28	11	4	18	6	
	4	15	12	11	16	27	10	3	17	6	
	5	17	12	11	16	27	9	2	17	5	
	6	22	12	10	14	26	7	2	17	5	
	7	24	11	10	12	26	7	1	16	5	
	8	25	10	10	11	25	5	1	16	5	
	9	27	9	10	11	25	4	1	15	5	
28	1	1	7	27	19	26	30	18	19	18	
	2	3	7	27	18	24	29	17	18	17	
	3	4	7	27	16	24	28	15	18	15	
	4	15	7	27	15	21	28	14	16	13	
	5	18	7	27	13	17	27	11	15	13	
	6	19	7	27	13	15	26	11	15	11	
	7	23	7	27	12	12	26	8	14	8	
	8	28	7	27	10	12	25	7	12	7	
	9	29	7	27	9	10	25	5	12	7	
29	1	4	25	13	23	27	18	24	29	19	
	2	5	24	12	22	27	16	21	29	15	
	3	7	21	12	21	24	14	20	29	15	
	4	8	20	11	21	22	12	17	29	14	
	5	9	15	11	20	19	11	15	29	12	
	6	15	12	10	20	17	10	15	29	10	
	7	20	12	10	19	14	7	12	29	9	
	8	25	10	9	18	11	7	11	29	6	
	9	27	6	9	18	10	5	10	29	5	
30	1	4	15	29	23	20	20	18	6	3	
	2	5	14	26	19	19	19	17	5	2	
	3	7	12	25	17	17	18	17	5	2	
	4	13	11	22	14	14	18	16	5	2	
	5	17	10	20	13	12	18	15	3	2	
	6	18	8	18	11	10	17	14	3	1	
	7	19	6	16	7	9	16	12	3	1	
	8	20	6	14	5	7	16	12	1	1	
	9	24	4	13	4	5	16	11	1	1	
31	1	3	20	10	14	22	15	18	11	27	
	2	4	20	9	14	21	13	16	11	22	
	3	8	16	7	14	21	11	16	10	21	
	4	17	15	6	14	21	11	13	9	18	
	5	20	14	5	14	21	8	11	9	17	
	6	23	11	4	14	21	7	10	9	16	
	7	26	9	4	14	21	6	7	8	12	
	8	27	7	3	14	21	3	5	7	12	
	9	30	5	2	14	21	2	4	7	9	
32	1	4	7	28	22	25	15	9	27	26	
	2	7	6	27	21	22	15	8	25	25	
	3	8	5	27	21	22	13	7	25	24	
	4	13	4	26	21	20	11	5	23	24	
	5	16	4	25	21	19	8	5	23	24	
	6	17	3	25	21	18	7	4	22	23	
	7	20	3	24	21	17	5	3	21	22	
	8	21	2	22	21	17	4	2	20	22	
	9	28	2	22	21	15	1	2	18	22	
33	1	2	11	30	23	16	8	6	9	11	
	2	3	10	26	22	14	7	6	9	10	
	3	4	9	25	22	12	7	6	8	9	
	4	7	8	23	21	11	7	5	6	7	
	5	15	8	18	20	10	6	4	5	6	
	6	16	8	16	19	9	6	4	5	5	
	7	24	7	13	18	8	6	4	3	5	
	8	25	7	12	17	7	5	3	3	3	
	9	27	6	11	16	5	5	3	2	3	
34	1	6	23	25	12	28	4	15	19	23	
	2	7	23	24	11	27	4	13	17	21	
	3	14	19	24	9	27	4	13	17	19	
	4	16	19	24	9	26	4	11	15	16	
	5	19	16	23	8	25	4	10	13	16	
	6	20	14	22	7	25	4	7	12	13	
	7	24	11	22	5	25	4	7	10	10	
	8	25	10	20	4	24	4	6	10	8	
	9	26	9	20	3	24	4	3	9	6	
35	1	1	16	18	8	28	7	27	25	4	
	2	4	15	17	8	25	7	24	23	4	
	3	8	15	17	8	23	6	24	18	4	
	4	9	14	17	8	19	5	21	15	4	
	5	21	14	17	7	18	4	21	14	4	
	6	22	13	17	7	17	4	18	12	4	
	7	23	12	17	7	15	2	17	7	4	
	8	28	12	17	7	10	1	16	4	4	
	9	29	12	17	7	8	1	14	4	4	
36	1	2	4	23	26	9	12	28	29	28	
	2	7	4	22	25	8	11	26	27	26	
	3	8	4	22	24	8	10	24	25	26	
	4	15	3	22	23	6	9	22	21	25	
	5	18	3	22	23	6	8	20	19	23	
	6	19	3	21	21	5	7	16	16	22	
	7	20	3	21	20	4	7	14	12	21	
	8	25	2	21	20	4	5	13	12	20	
	9	26	2	21	19	3	5	10	8	20	
37	1	13	26	23	21	14	18	20	18	8	
	2	14	22	20	20	13	18	20	16	8	
	3	15	22	20	18	13	18	18	14	8	
	4	21	19	17	17	13	18	17	13	8	
	5	22	15	17	17	13	18	16	10	7	
	6	24	15	16	17	13	18	16	10	7	
	7	25	11	14	15	13	18	15	7	7	
	8	26	11	13	15	13	18	13	6	7	
	9	28	7	12	14	13	18	12	3	7	
38	1	3	12	20	7	20	5	25	15	22	
	2	4	9	16	5	18	5	24	14	22	
	3	5	8	14	5	18	5	22	14	20	
	4	7	7	14	5	17	4	22	13	18	
	5	10	7	12	4	16	4	19	11	14	
	6	20	6	9	4	16	4	19	10	13	
	7	21	5	6	3	15	4	17	10	9	
	8	23	4	6	3	14	3	17	8	8	
	9	25	3	4	2	13	3	16	8	7	
39	1	1	22	15	21	16	25	22	22	18	
	2	2	19	13	19	15	25	21	21	16	
	3	10	19	12	19	13	23	20	21	15	
	4	21	17	12	17	13	23	16	20	14	
	5	24	14	9	16	12	21	14	19	13	
	6	26	14	7	15	9	20	12	19	12	
	7	27	11	6	15	8	20	8	19	11	
	8	28	10	5	14	6	19	6	18	10	
	9	30	8	2	13	6	17	4	17	9	
40	1	1	29	22	24	20	29	24	15	13	
	2	3	26	20	23	19	24	23	15	11	
	3	4	24	18	23	17	23	23	14	10	
	4	11	22	17	23	15	19	22	13	9	
	5	19	17	14	23	14	18	22	13	9	
	6	23	14	11	23	11	13	22	12	8	
	7	24	14	10	23	10	9	21	11	8	
	8	26	12	7	23	8	6	20	11	6	
	9	29	8	6	23	7	3	20	10	6	
41	1	3	16	7	7	12	20	30	30	16	
	2	17	15	7	6	12	19	28	28	14	
	3	18	14	7	6	12	17	27	28	13	
	4	19	14	7	5	12	15	25	27	11	
	5	20	12	7	5	11	12	25	26	11	
	6	21	12	7	4	11	9	23	24	9	
	7	22	11	7	3	11	9	22	23	9	
	8	23	9	7	3	11	6	22	22	6	
	9	25	9	7	3	11	5	21	21	6	
42	1	1	27	23	18	5	22	20	18	20	
	2	6	26	22	18	4	21	20	16	19	
	3	8	26	22	18	4	16	19	16	18	
	4	13	26	21	18	4	14	18	14	17	
	5	14	26	21	18	3	13	18	13	16	
	6	16	25	21	18	2	9	17	13	15	
	7	17	25	20	18	2	7	17	12	15	
	8	27	25	20	18	2	3	16	11	14	
	9	30	25	20	18	1	1	15	10	13	
43	1	11	16	16	15	17	25	16	20	16	
	2	13	16	16	15	16	23	14	19	14	
	3	14	15	16	15	16	21	14	18	14	
	4	17	13	15	15	15	18	13	17	13	
	5	19	12	15	15	14	18	13	17	12	
	6	20	10	15	14	14	16	13	17	11	
	7	21	10	14	14	13	14	12	15	9	
	8	22	8	14	14	13	13	12	15	8	
	9	29	7	14	14	13	11	11	14	7	
44	1	1	6	26	25	21	23	15	30	20	
	2	8	6	24	23	20	22	14	28	18	
	3	9	6	22	19	20	22	13	26	17	
	4	21	5	22	18	19	21	13	22	15	
	5	23	4	20	15	19	20	12	21	13	
	6	24	4	19	10	18	18	12	21	13	
	7	26	3	18	8	18	17	12	18	11	
	8	29	3	15	8	17	17	11	17	9	
	9	30	3	15	4	17	16	11	14	9	
45	1	6	28	9	19	12	22	25	24	28	
	2	9	26	9	18	10	21	20	21	28	
	3	10	26	8	16	9	18	19	20	28	
	4	11	23	7	16	8	17	15	19	28	
	5	16	22	7	14	7	15	13	17	27	
	6	17	22	6	12	6	14	11	16	27	
	7	18	19	6	11	5	13	7	14	27	
	8	21	19	5	8	5	9	3	14	27	
	9	23	18	4	7	4	8	3	12	27	
46	1	4	11	14	25	29	10	14	16	13	
	2	8	9	13	23	27	9	12	13	12	
	3	9	8	13	17	27	8	12	12	10	
	4	13	7	12	17	27	8	12	12	9	
	5	17	6	11	12	26	6	10	10	9	
	6	21	5	11	11	25	4	10	8	6	
	7	26	3	11	8	24	3	10	6	5	
	8	29	2	10	4	24	3	8	5	4	
	9	30	1	10	3	23	1	8	3	3	
47	1	9	5	8	19	8	20	19	26	7	
	2	10	5	7	18	8	19	19	25	7	
	3	11	5	6	16	8	19	15	24	7	
	4	12	5	6	16	8	18	13	23	7	
	5	15	5	6	14	8	18	12	22	6	
	6	16	4	5	13	8	18	8	20	6	
	7	18	4	5	12	8	18	6	20	6	
	8	27	4	4	12	8	17	3	18	6	
	9	28	4	4	11	8	17	3	18	6	
48	1	1	24	7	15	19	24	10	27	21	
	2	2	22	6	14	19	24	9	23	18	
	3	3	21	6	14	18	23	8	20	15	
	4	5	19	5	13	17	23	7	19	13	
	5	8	18	4	13	16	22	7	15	10	
	6	9	16	4	13	14	21	7	13	8	
	7	10	15	2	12	13	20	5	10	8	
	8	24	13	2	11	12	20	4	7	4	
	9	26	10	1	11	11	19	4	3	4	
49	1	2	13	12	19	28	26	4	4	20	
	2	4	11	10	18	23	26	4	4	19	
	3	10	11	10	14	21	25	4	4	19	
	4	18	10	9	14	19	25	4	3	19	
	5	20	9	6	12	16	24	4	2	18	
	6	21	7	6	9	15	24	4	2	18	
	7	22	6	4	8	13	24	4	2	18	
	8	24	6	3	5	8	23	4	1	18	
	9	25	5	2	5	6	23	4	1	18	
50	1	2	5	24	13	7	6	23	26	20	
	2	3	5	24	10	7	6	23	26	20	
	3	6	5	24	9	5	6	22	25	20	
	4	8	5	24	8	4	5	22	24	19	
	5	13	5	24	8	4	5	21	24	19	
	6	20	5	23	7	3	5	21	23	19	
	7	21	5	23	6	2	4	20	23	18	
	8	24	5	23	4	1	4	19	23	18	
	9	25	5	23	3	1	4	19	22	18	
51	1	1	26	14	20	19	14	28	20	28	
	2	7	23	14	20	19	13	27	17	27	
	3	9	21	14	19	16	12	27	17	26	
	4	11	19	14	19	14	12	26	14	24	
	5	12	18	13	19	12	11	25	14	24	
	6	24	17	13	18	12	10	25	12	23	
	7	25	16	13	17	9	10	24	11	21	
	8	27	15	13	17	6	9	23	9	21	
	9	30	13	13	17	6	8	23	8	20	
52	1	0	0	0	0	0	0	0	0	0	
************************************************************************

 RESOURCE AVAILABILITIES 
	R 1	R 2	R 3	R 4	N 1	N 2	N 3	N 4
	58	55	58	58	756	690	703	694

************************************************************************
